
Gurobi 13.0.0 (win64, gurobi_cl) logging started Thu Dec 25 19:42:14 2025

Set parameter LogFile to value "gurobi.log"

Gurobi 13.0.0 (win64, gurobi_cl) logging started Thu Dec 25 19:42:18 2025

Set parameter LogFile to value "gurobi.log"

Gurobi 13.0.0 (win64, gurobi_cl) logging started Thu Dec 25 19:43:56 2025

Set parameter LogFile to value "gurobi.log"

Gurobi 13.0.0 (win64, gurobi_cl) logging started Thu Dec 25 19:45:19 2025

Set parameter LogFile to value "gurobi.log"

Gurobi 13.0.0 (win64, gurobi_cl) logging started Thu Dec 25 19:46:15 2025

Set parameter LogFile to value "gurobi.log"
